(set-info :smt-lib-version 2.6)
(set-info :category "crafted")
(set-logic QF_FF)
(define-sort FF0 () (_ FiniteField 52435875175126190479447740508185965837690552500527637822603658699938581184513))
(declare-fun mul_n38_alt () FF0)
(declare-fun is_zero_n41_alt () FF0)
(declare-fun is_zero_n44_alt () FF0)
(declare-fun mul_n28_alt () FF0)
(declare-fun mul_n37_alt () FF0)
(declare-fun mul_n11_alt () FF0)
(declare-fun mul_n20_alt () FF0)
(declare-fun mul_n39_alt () FF0)
(declare-fun return_n6_alt () FF0)
(declare-fun is_zero_inv_n45_alt () FF0)
(declare-fun mul_n35_alt () FF0)
(declare-fun is_zero_n22_alt () FF0)
(declare-fun is_zero_n25_alt () FF0)
(declare-fun is_zero_n31_alt () FF0)
(declare-fun e_n2_alt () FF0)
(declare-fun is_zero_n27_alt () FF0)
(declare-fun f_n1_alt () FF0)
(declare-fun mul_n23_alt () FF0)
(declare-fun mul_n42_alt () FF0)
(declare-fun mul_n29_alt () FF0)
(declare-fun is_zero_inv_n43_alt () FF0)
(declare-fun is_zero_n18_alt () FF0)
(declare-fun mul_n36_alt () FF0)
(declare-fun is_zero_inv_n40_alt () FF0)
(declare-fun is_zero_n34_alt () FF0)
(declare-fun mul_n9_alt () FF0)
(declare-fun mul_n16_alt () FF0)
(declare-fun mul_n32_alt () FF0)
(declare-fun c_n4_alt () FF0)
(declare-fun is_zero_inv_n33_alt () FF0)
(declare-fun mul_n14_alt () FF0)
(declare-fun h_n5_alt () FF0)
(declare-fun is_zero_n13_alt () FF0)
(declare-fun is_zero_inv_n30_alt () FF0)
(declare-fun a_n0_alt () FF0)
(declare-fun mul_n15_alt () FF0)
(declare-fun is_zero_inv_n26_alt () FF0)
(declare-fun b_n8_alt () FF0)
(declare-fun is_zero_inv_n24_alt () FF0)
(declare-fun g_n7_alt () FF0)
(declare-fun is_zero_inv_n21_alt () FF0)
(declare-fun mul_n19_alt () FF0)
(declare-fun d_n3_alt () FF0)
(declare-fun is_zero_inv_n17_alt () FF0)
(declare-fun is_zero_inv_n12_alt () FF0)
(declare-fun mul_n10_alt () FF0)
(declare-fun mul_n38 () FF0)
(declare-fun is_zero_n41 () FF0)
(declare-fun is_zero_n44 () FF0)
(declare-fun mul_n28 () FF0)
(declare-fun mul_n37 () FF0)
(declare-fun mul_n11 () FF0)
(declare-fun mul_n20 () FF0)
(declare-fun mul_n39 () FF0)
(declare-fun return_n6 () FF0)
(declare-fun is_zero_inv_n45 () FF0)
(declare-fun mul_n35 () FF0)
(declare-fun is_zero_n22 () FF0)
(declare-fun is_zero_n25 () FF0)
(declare-fun is_zero_n31 () FF0)
(declare-fun e_n2 () FF0)
(declare-fun is_zero_n27 () FF0)
(declare-fun f_n1 () FF0)
(declare-fun mul_n23 () FF0)
(declare-fun mul_n42 () FF0)
(declare-fun mul_n29 () FF0)
(declare-fun is_zero_inv_n43 () FF0)
(declare-fun is_zero_n18 () FF0)
(declare-fun mul_n36 () FF0)
(declare-fun is_zero_inv_n40 () FF0)
(declare-fun is_zero_n34 () FF0)
(declare-fun mul_n9 () FF0)
(declare-fun mul_n16 () FF0)
(declare-fun mul_n32 () FF0)
(declare-fun c_n4 () FF0)
(declare-fun is_zero_inv_n33 () FF0)
(declare-fun mul_n14 () FF0)
(declare-fun h_n5 () FF0)
(declare-fun is_zero_n13 () FF0)
(declare-fun is_zero_inv_n30 () FF0)
(declare-fun a_n0 () FF0)
(declare-fun mul_n15 () FF0)
(declare-fun is_zero_inv_n26 () FF0)
(declare-fun b_n8 () FF0)
(declare-fun is_zero_inv_n24 () FF0)
(declare-fun g_n7 () FF0)
(declare-fun is_zero_inv_n21 () FF0)
(declare-fun mul_n19 () FF0)
(declare-fun d_n3 () FF0)
(declare-fun is_zero_inv_n17 () FF0)
(declare-fun is_zero_inv_n12 () FF0)
(declare-fun mul_n10 () FF0)
(assert 
  (let ((let0 (as ff0 FF0)))
  (let ((let1 (as ff4 FF0)))
  (let ((let2 (as ff52435875175126190479447740508185965837690552500527637822603658699938581184512 FF0)))
  (let ((let3 mul_n38_alt))
  (let ((let4 (ff.mul let3 let2)))
  (let ((let5 is_zero_n41_alt))
  (let ((let6 (ff.mul let5 let2)))
  (let ((let7 is_zero_n44_alt))
  (let ((let8 mul_n28_alt))
  (let ((let9 (ff.mul let8 let2)))
  (let ((let10 mul_n37_alt))
  (let ((let11 mul_n11_alt))
  (let ((let12 (ff.mul let11 let2)))
  (let ((let13 mul_n20_alt))
  (let ((let14 mul_n39_alt))
  (let ((let15 (ff.add let14 let13 let12 let10 let9 let7 let6 let4 let1)))
  (let ((let16 (as ff1 FF0)))
  (let ((let17 return_n6_alt))
  (let ((let18 (ff.mul let17 let2)))
  (let ((let19 (ff.add let18 let16)))
  (let ((let20 (ff.mul let19 let15)))
  (let ((let21 (= let20 let0)))
  (let ((let22 is_zero_inv_n45_alt))
  (let ((let23 (ff.mul let22 let15)))
  (let ((let24 (= let23 let17)))
  (let ((let25 (as ff5 FF0)))
  (let ((let26 mul_n35_alt))
  (let ((let27 (ff.mul let26 let2)))
  (let ((let28 is_zero_n22_alt))
  (let ((let29 (ff.mul let28 let2)))
  (let ((let30 is_zero_n25_alt))
  (let ((let31 is_zero_n31_alt))
  (let ((let32 (ff.mul let31 let2)))
  (let ((let33 (as ff52435875175126190479447740508185965837690552500527637822603658699938581184511 FF0)))
  (let ((let34 e_n2_alt))
  (let ((let35 (ff.mul let34 let33)))
  (let ((let36 is_zero_n27_alt))
  (let ((let37 (ff.mul let36 let2)))
  (let ((let38 f_n1_alt))
  (let ((let39 mul_n23_alt))
  (let ((let40 (ff.mul let39 let2)))
  (let ((let41 mul_n42_alt))
  (let ((let42 mul_n29_alt))
  (let ((let43 (ff.mul let42 let2)))
  (let ((let44 (ff.add let43 let41 let40 let38 let37 let35 let32 let30 let29 let27 let25)))
  (let ((let45 (ff.mul let7 let44)))
  (let ((let46 (= let45 let0)))
  (let ((let47 (ff.mul let7 let2)))
  (let ((let48 (ff.add let47 let16)))
  (let ((let49 is_zero_inv_n43_alt))
  (let ((let50 (ff.mul let49 let44)))
  (let ((let51 (= let50 let48)))
  (let ((let52 is_zero_n18_alt))
  (let ((let53 (ff.mul let52 let2)))
  (let ((let54 (ff.add let53 let16)))
  (let ((let55 (ff.mul let13 let54)))
  (let ((let56 (= let55 let41)))
  (let ((let57 (as ff2 FF0)))
  (let ((let58 mul_n36_alt))
  (let ((let59 (ff.mul let58 let2)))
  (let ((let60 (ff.add let36 let42 let34 let59 let30 let29 let26 let57)))
  (let ((let61 (ff.mul let5 let60)))
  (let ((let62 (= let61 let0)))
  (let ((let63 (ff.add let6 let16)))
  (let ((let64 is_zero_inv_n40_alt))
  (let ((let65 (ff.mul let64 let60)))
  (let ((let66 (= let65 let63)))
  (let ((let67 (ff.mul let13 let2)))
  (let ((let68 (ff.add let67 let32 let16)))
  (let ((let69 is_zero_n34_alt))
  (let ((let70 (ff.mul let69 let68)))
  (let ((let71 (= let70 let14)))
  (let ((let72 (ff.add let38 let29 let40 let16)))
  (let ((let73 mul_n9_alt))
  (let ((let74 (ff.mul let73 let72)))
  (let ((let75 (= let74 let3)))
  (let ((let76 (ff.add let8 let69 let2)))
  (let ((let77 (ff.add let59 let16)))
  (let ((let78 (ff.mul let77 let76)))
  (let ((let79 (= let78 let10)))
  (let ((let80 (ff.mul let34 let2)))
  (let ((let81 (ff.add let27 let43 let80 let37 let57)))
  (let ((let82 mul_n16_alt))
  (let ((let83 (ff.mul let82 let81)))
  (let ((let84 (= let83 let58)))
  (let ((let85 mul_n32_alt))
  (let ((let86 (ff.add let85 let43 let80 let31 let73 let37)))
  (let ((let87 (ff.mul let69 let86)))
  (let ((let88 (= let87 let26)))
  (let ((let89 (as ff7 FF0)))
  (let ((let90 (ff.mul let73 let2)))
  (let ((let91 (ff.mul let30 let57)))
  (let ((let92 (ff.mul let36 let33)))
  (let ((let93 c_n4_alt))
  (let ((let94 (ff.mul let93 let2)))
  (let ((let95 (ff.mul let85 let2)))
  (let ((let96 (ff.add let95 let43 let40 let94 let38 let92 let80 let32 let8 let91 let29 let90 let89)))
  (let ((let97 (ff.mul let69 let96)))
  (let ((let98 (= let97 let0)))
  (let ((let99 (ff.mul let69 let2)))
  (let ((let100 (ff.add let99 let16)))
  (let ((let101 is_zero_inv_n33_alt))
  (let ((let102 (ff.mul let101 let96)))
  (let ((let103 (= let102 let100)))
  (let ((let104 (ff.add let90 let16)))
  (let ((let105 (ff.mul let31 let33)))
  (let ((let106 (ff.add let105 let57)))
  (let ((let107 (ff.mul let106 let104)))
  (let ((let108 (= let107 let85)))
  (let ((let109 mul_n14_alt))
  (let ((let110 (ff.mul let109 let2)))
  (let ((let111 h_n5_alt))
  (let ((let112 is_zero_n13_alt))
  (let ((let113 (ff.mul let112 let2)))
  (let ((let114 (ff.add let42 let34 let113 let93 let111 let110 let36 let16)))
  (let ((let115 (ff.mul let31 let114)))
  (let ((let116 (= let115 let0)))
  (let ((let117 (ff.add let32 let16)))
  (let ((let118 is_zero_inv_n30_alt))
  (let ((let119 (ff.mul let118 let114)))
  (let ((let120 (= let119 let117)))
  (let ((let121 (ff.add let80 let16)))
  (let ((let122 (ff.add let92 let57)))
  (let ((let123 (ff.mul let122 let121)))
  (let ((let124 (= let123 let42)))
  (let ((let125 (ff.add let37 let16)))
  (let ((let126 a_n0_alt))
  (let ((let127 (ff.mul let126 let2)))
  (let ((let128 (ff.add let127 let16)))
  (let ((let129 (ff.mul let128 let125)))
  (let ((let130 (= let129 let8)))
  (let ((let131 (as ff3 FF0)))
  (let ((let132 mul_n15_alt))
  (let ((let133 (ff.mul let132 let2)))
  (let ((let134 (ff.add let113 let34 let133 let91 let110 let38 let131)))
  (let ((let135 is_zero_inv_n26_alt))
  (let ((let136 (ff.mul let135 let134)))
  (let ((let137 (= let136 let125)))
  (let ((let138 (as ff6 FF0)))
  (let ((let139 b_n8_alt))
  (let ((let140 (ff.mul let139 let33)))
  (let ((let141 (ff.mul let82 let57)))
  (let ((let142 (ff.add let127 let141 let40 let67 let38 let140 let73 let28 let138)))
  (let ((let143 (ff.mul let30 let142)))
  (let ((let144 (= let143 let0)))
  (let ((let145 (ff.mul let30 let2)))
  (let ((let146 (ff.add let145 let16)))
  (let ((let147 is_zero_inv_n24_alt))
  (let ((let148 (ff.mul let147 let142)))
  (let ((let149 (= let148 let146)))
  (let ((let150 (ff.mul let28 let33)))
  (let ((let151 (ff.add let150 let57)))
  (let ((let152 (ff.mul let151 let38)))
  (let ((let153 (= let152 let39)))
  (let ((let154 g_n7_alt))
  (let ((let155 (ff.add let52 let154 let93 let13)))
  (let ((let156 (ff.mul let28 let155)))
  (let ((let157 (= let156 let0)))
  (let ((let158 (ff.add let29 let16)))
  (let ((let159 is_zero_inv_n21_alt))
  (let ((let160 (ff.mul let159 let155)))
  (let ((let161 (= let160 let158)))
  (let ((let162 mul_n19_alt))
  (let ((let163 (ff.mul let162 let52)))
  (let ((let164 (= let163 let13)))
  (let ((let165 (ff.add let133 let16)))
  (let ((let166 (ff.mul let73 let165)))
  (let ((let167 (= let166 let162)))
  (let ((let168 (as ff8 FF0)))
  (let ((let169 d_n3_alt))
  (let ((let170 (ff.mul let169 let2)))
  (let ((let171 (ff.mul let34 let57)))
  (let ((let172 (ff.mul let111 let2)))
  (let ((let173 (ff.mul let139 let2)))
  (let ((let174 (ff.mul let38 let33)))
  (let ((let175 (ff.mul let154 let2)))
  (let ((let176 (ff.add let127 let112 let175 let94 let174 let109 let173 let172 let171 let170 let168)))
  (let ((let177 (ff.mul let52 let176)))
  (let ((let178 (= let177 let0)))
  (let ((let179 is_zero_inv_n17_alt))
  (let ((let180 (ff.mul let179 let176)))
  (let ((let181 (= let180 let54)))
  (let ((let182 (ff.add let172 let16)))
  (let ((let183 (ff.mul let165 let182)))
  (let ((let184 (= let183 let82)))
  (let ((let185 (ff.add let113 let16)))
  (let ((let186 (ff.mul let185 let109)))
  (let ((let187 (= let186 let132)))
  (let ((let188 (ff.add let170 let16)))
  (let ((let189 (ff.mul let154 let188)))
  (let ((let190 (= let189 let109)))
  (let ((let191 (ff.add let139 let126 let34 let93)))
  (let ((let192 (ff.mul let112 let191)))
  (let ((let193 (= let192 let0)))
  (let ((let194 is_zero_inv_n12_alt))
  (let ((let195 (ff.mul let194 let191)))
  (let ((let196 (= let195 let185)))
  (let ((let197 mul_n10_alt))
  (let ((let198 (ff.add let73 let197 let170)))
  (let ((let199 (ff.mul let198 let34)))
  (let ((let200 (= let199 let11)))
  (let ((let201 (ff.mul let169 let57)))
  (let ((let202 (ff.mul let201 let104)))
  (let ((let203 (= let202 let197)))
  (let ((let204 (ff.mul let169 let111)))
  (let ((let205 (= let204 let73)))
  (let ((let206 (and let205 let203 let200 let196 let193 let190 let187 let184 let181 let178 let167 let164 let161 let157 let153 let149 let144 let137 let130 let124 let120 let116 let108 let103 let98 let88 let84 let79 let75 let71 let66 let62 let56 let51 let46 let24 let21)))
  (let ((let207 mul_n38))
  (let ((let208 (ff.mul let207 let2)))
  (let ((let209 is_zero_n41))
  (let ((let210 (ff.mul let209 let2)))
  (let ((let211 is_zero_n44))
  (let ((let212 mul_n28))
  (let ((let213 (ff.mul let212 let2)))
  (let ((let214 mul_n37))
  (let ((let215 mul_n11))
  (let ((let216 (ff.mul let215 let2)))
  (let ((let217 mul_n20))
  (let ((let218 mul_n39))
  (let ((let219 (ff.add let218 let217 let216 let214 let213 let211 let210 let208 let1)))
  (let ((let220 return_n6))
  (let ((let221 (ff.mul let220 let2)))
  (let ((let222 (ff.add let221 let16)))
  (let ((let223 (ff.mul let222 let219)))
  (let ((let224 (= let223 let0)))
  (let ((let225 is_zero_inv_n45))
  (let ((let226 (ff.mul let225 let219)))
  (let ((let227 (= let226 let220)))
  (let ((let228 mul_n35))
  (let ((let229 (ff.mul let228 let2)))
  (let ((let230 is_zero_n22))
  (let ((let231 (ff.mul let230 let2)))
  (let ((let232 is_zero_n25))
  (let ((let233 is_zero_n31))
  (let ((let234 (ff.mul let233 let2)))
  (let ((let235 e_n2))
  (let ((let236 (ff.mul let235 let33)))
  (let ((let237 is_zero_n27))
  (let ((let238 (ff.mul let237 let2)))
  (let ((let239 f_n1))
  (let ((let240 mul_n23))
  (let ((let241 (ff.mul let240 let2)))
  (let ((let242 mul_n42))
  (let ((let243 mul_n29))
  (let ((let244 (ff.mul let243 let2)))
  (let ((let245 (ff.add let244 let242 let241 let239 let238 let236 let234 let232 let231 let229 let25)))
  (let ((let246 (ff.mul let211 let245)))
  (let ((let247 (= let246 let0)))
  (let ((let248 (ff.mul let211 let2)))
  (let ((let249 (ff.add let248 let16)))
  (let ((let250 is_zero_inv_n43))
  (let ((let251 (ff.mul let250 let245)))
  (let ((let252 (= let251 let249)))
  (let ((let253 is_zero_n18))
  (let ((let254 (ff.mul let253 let2)))
  (let ((let255 (ff.add let254 let16)))
  (let ((let256 (ff.mul let217 let255)))
  (let ((let257 (= let256 let242)))
  (let ((let258 mul_n36))
  (let ((let259 (ff.mul let258 let2)))
  (let ((let260 (ff.add let237 let243 let235 let259 let232 let231 let228 let57)))
  (let ((let261 (ff.mul let209 let260)))
  (let ((let262 (= let261 let0)))
  (let ((let263 (ff.add let210 let16)))
  (let ((let264 is_zero_inv_n40))
  (let ((let265 (ff.mul let264 let260)))
  (let ((let266 (= let265 let263)))
  (let ((let267 (ff.mul let217 let2)))
  (let ((let268 (ff.add let267 let234 let16)))
  (let ((let269 is_zero_n34))
  (let ((let270 (ff.mul let269 let268)))
  (let ((let271 (= let270 let218)))
  (let ((let272 (ff.add let239 let231 let241 let16)))
  (let ((let273 mul_n9))
  (let ((let274 (ff.mul let273 let272)))
  (let ((let275 (= let274 let207)))
  (let ((let276 (ff.add let212 let269 let2)))
  (let ((let277 (ff.add let259 let16)))
  (let ((let278 (ff.mul let277 let276)))
  (let ((let279 (= let278 let214)))
  (let ((let280 (ff.mul let235 let2)))
  (let ((let281 (ff.add let229 let244 let280 let238 let57)))
  (let ((let282 mul_n16))
  (let ((let283 (ff.mul let282 let281)))
  (let ((let284 (= let283 let258)))
  (let ((let285 mul_n32))
  (let ((let286 (ff.add let285 let244 let280 let233 let273 let238)))
  (let ((let287 (ff.mul let269 let286)))
  (let ((let288 (= let287 let228)))
  (let ((let289 (ff.mul let273 let2)))
  (let ((let290 (ff.mul let232 let57)))
  (let ((let291 (ff.mul let237 let33)))
  (let ((let292 c_n4))
  (let ((let293 (ff.mul let292 let2)))
  (let ((let294 (ff.mul let285 let2)))
  (let ((let295 (ff.add let294 let244 let241 let293 let239 let291 let280 let234 let212 let290 let231 let289 let89)))
  (let ((let296 (ff.mul let269 let295)))
  (let ((let297 (= let296 let0)))
  (let ((let298 (ff.mul let269 let2)))
  (let ((let299 (ff.add let298 let16)))
  (let ((let300 is_zero_inv_n33))
  (let ((let301 (ff.mul let300 let295)))
  (let ((let302 (= let301 let299)))
  (let ((let303 (ff.add let289 let16)))
  (let ((let304 (ff.mul let233 let33)))
  (let ((let305 (ff.add let304 let57)))
  (let ((let306 (ff.mul let305 let303)))
  (let ((let307 (= let306 let285)))
  (let ((let308 mul_n14))
  (let ((let309 (ff.mul let308 let2)))
  (let ((let310 h_n5))
  (let ((let311 is_zero_n13))
  (let ((let312 (ff.mul let311 let2)))
  (let ((let313 (ff.add let243 let235 let312 let292 let310 let309 let237 let16)))
  (let ((let314 (ff.mul let233 let313)))
  (let ((let315 (= let314 let0)))
  (let ((let316 (ff.add let234 let16)))
  (let ((let317 is_zero_inv_n30))
  (let ((let318 (ff.mul let317 let313)))
  (let ((let319 (= let318 let316)))
  (let ((let320 (ff.add let280 let16)))
  (let ((let321 (ff.add let291 let57)))
  (let ((let322 (ff.mul let321 let320)))
  (let ((let323 (= let322 let243)))
  (let ((let324 (ff.add let238 let16)))
  (let ((let325 a_n0))
  (let ((let326 (ff.mul let325 let2)))
  (let ((let327 (ff.add let326 let16)))
  (let ((let328 (ff.mul let327 let324)))
  (let ((let329 (= let328 let212)))
  (let ((let330 mul_n15))
  (let ((let331 (ff.mul let330 let2)))
  (let ((let332 (ff.add let312 let235 let331 let290 let309 let239 let131)))
  (let ((let333 is_zero_inv_n26))
  (let ((let334 (ff.mul let333 let332)))
  (let ((let335 (= let334 let324)))
  (let ((let336 b_n8))
  (let ((let337 (ff.mul let336 let33)))
  (let ((let338 (ff.mul let282 let57)))
  (let ((let339 (ff.add let326 let338 let241 let267 let239 let337 let273 let230 let138)))
  (let ((let340 (ff.mul let232 let339)))
  (let ((let341 (= let340 let0)))
  (let ((let342 (ff.mul let232 let2)))
  (let ((let343 (ff.add let342 let16)))
  (let ((let344 is_zero_inv_n24))
  (let ((let345 (ff.mul let344 let339)))
  (let ((let346 (= let345 let343)))
  (let ((let347 (ff.mul let230 let33)))
  (let ((let348 (ff.add let347 let57)))
  (let ((let349 (ff.mul let348 let239)))
  (let ((let350 (= let349 let240)))
  (let ((let351 g_n7))
  (let ((let352 (ff.add let253 let351 let292 let217)))
  (let ((let353 (ff.mul let230 let352)))
  (let ((let354 (= let353 let0)))
  (let ((let355 (ff.add let231 let16)))
  (let ((let356 is_zero_inv_n21))
  (let ((let357 (ff.mul let356 let352)))
  (let ((let358 (= let357 let355)))
  (let ((let359 mul_n19))
  (let ((let360 (ff.mul let359 let253)))
  (let ((let361 (= let360 let217)))
  (let ((let362 (ff.add let331 let16)))
  (let ((let363 (ff.mul let273 let362)))
  (let ((let364 (= let363 let359)))
  (let ((let365 d_n3))
  (let ((let366 (ff.mul let365 let2)))
  (let ((let367 (ff.mul let235 let57)))
  (let ((let368 (ff.mul let310 let2)))
  (let ((let369 (ff.mul let336 let2)))
  (let ((let370 (ff.mul let239 let33)))
  (let ((let371 (ff.mul let351 let2)))
  (let ((let372 (ff.add let326 let311 let371 let293 let370 let308 let369 let368 let367 let366 let168)))
  (let ((let373 (ff.mul let253 let372)))
  (let ((let374 (= let373 let0)))
  (let ((let375 is_zero_inv_n17))
  (let ((let376 (ff.mul let375 let372)))
  (let ((let377 (= let376 let255)))
  (let ((let378 (ff.add let368 let16)))
  (let ((let379 (ff.mul let362 let378)))
  (let ((let380 (= let379 let282)))
  (let ((let381 (ff.add let312 let16)))
  (let ((let382 (ff.mul let381 let308)))
  (let ((let383 (= let382 let330)))
  (let ((let384 (ff.add let366 let16)))
  (let ((let385 (ff.mul let351 let384)))
  (let ((let386 (= let385 let308)))
  (let ((let387 (ff.add let336 let325 let235 let292)))
  (let ((let388 (ff.mul let311 let387)))
  (let ((let389 (= let388 let0)))
  (let ((let390 is_zero_inv_n12))
  (let ((let391 (ff.mul let390 let387)))
  (let ((let392 (= let391 let381)))
  (let ((let393 mul_n10))
  (let ((let394 (ff.add let273 let393 let366)))
  (let ((let395 (ff.mul let394 let235)))
  (let ((let396 (= let395 let215)))
  (let ((let397 (ff.mul let365 let57)))
  (let ((let398 (ff.mul let397 let303)))
  (let ((let399 (= let398 let393)))
  (let ((let400 (ff.mul let365 let310)))
  (let ((let401 (= let400 let273)))
  (let ((let402 (and let401 let399 let396 let392 let389 let386 let383 let380 let377 let374 let364 let361 let358 let354 let350 let346 let341 let335 let329 let323 let319 let315 let307 let302 let297 let288 let284 let279 let275 let271 let266 let262 let257 let252 let247 let227 let224)))
  (let ((let403 (= let220 let17)))
  (let ((let404 (not let403)))
  (let ((let405 (= let235 let34)))
  (let ((let406 (= let292 let93)))
  (let ((let407 (= let365 let169)))
  (let ((let408 (= let239 let38)))
  (let ((let409 (= let351 let154)))
  (let ((let410 (= let325 let126)))
  (let ((let411 (= let310 let111)))
  (let ((let412 (= let336 let139)))
  (let ((let413 (and let412 let411 let410 let409 let408 let407 let406 let405)))
  (let ((let414 (and let413 let404 let402 let206)))
  let414
)))))))))))))))))))))))))))))))))))))))))))))))))))))))))))))))))))))))))))))))))))))))))))))))))))))))))))))))))))))))))))))))))))))))))))))))))))))))))))))))))))))))))))))))))))))))))))))))))))))))))))))))))))))))))))))))))))))))))))))))))))))))))))))))))))))))))))))))))))))))))))))))))))))))))))))))))))))))))))))))))))))))))))))))))))))))))))))))))))))))))))))))))))))))))))))))))))))))))))))))))))))))))))))))
)
(check-sat)
